
******************************************************************************
This program contains Ipopt, a library for large-scale nonlinear optimization.
 Ipopt is released as open source code under the Eclipse Public License (EPL).
         For more information visit http://projects.coin-or.org/Ipopt
******************************************************************************

This is Ipopt version 3.13.2, running with linear solver mumps.
NOTE: Other linear solvers might be more efficient (see Ipopt documentation).

Number of nonzeros in equality constraint Jacobian...:        0
Number of nonzeros in inequality constraint Jacobian.:     8450
Number of nonzeros in Lagrangian Hessian.............:        0

Total number of variables............................:     4225
                     variables with only lower bounds:        0
                variables with lower and upper bounds:     4225
                     variables with only upper bounds:        0
Total number of equality constraints.................:        0
Total number of inequality constraints...............:        2
        inequality constraints with only lower bounds:        2
   inequality constraints with lower and upper bounds:        0
        inequality constraints with only upper bounds:        0

iter    objective    inf_pr   inf_du lg(mu)  ||d||  lg(rg) alpha_du alpha_pr  ls
   0  1.8663436e-01 1.38e+01 3.27e-01  -1.0 0.00e+00    -  0.00e+00 0.00e+00   0
   1  1.8689746e-01 1.38e+01 6.46e+01  -1.0 4.40e+00    -  1.45e-01 2.25e-03f  1
   2  2.0668610e-01 1.34e+01 7.34e+01  -1.0 3.31e+00    -  6.79e-02 3.02e-02f  1
   3  2.0853442e-01 1.33e+01 1.96e+03  -1.0 1.82e+00    -  1.43e-01 2.44e-03f  1
   4  1.1958467e+00 5.16e+00 1.89e+02  -1.0 1.61e+00    -  3.74e-01 5.70e-01f  1
   5  6.5688917e+00 1.78e+00 4.02e+02  -1.0 5.38e-01    -  6.43e-01 8.53e-01f  1

Number of Iterations....: 5

                                   (scaled)                 (unscaled)
Objective...............:   6.5688916841995546e+00    6.5688916841995546e+00
Dual infeasibility......:   4.0195035031776843e+02    4.0195035031776843e+02
Constraint violation....:   1.7795628218874602e+00    1.7795628218874602e+00
Complementarity.........:   2.5774474870984465e-01    2.5774474870984465e-01
Overall NLP error.......:   4.0195035031776843e+02    4.0195035031776843e+02


Number of objective function evaluations             = 6
Number of objective gradient evaluations             = 6
Number of equality constraint evaluations            = 0
Number of inequality constraint evaluations          = 6
Number of equality constraint Jacobian evaluations   = 0
Number of inequality constraint Jacobian evaluations = 6
Number of Lagrangian Hessian evaluations             = 0
Total CPU secs in IPOPT (w/o function evaluations)   =      0.382
Total CPU secs in NLP function evaluations           =     12.844

EXIT: Maximum Number of Iterations Exceeded.
